(set-logic QF_LRA)
(declare-fun T1 () Real )
(declare-fun T2 () Real )
(declare-fun T3 () Real )
(declare-fun T4 () Real )
(declare-fun T5 () Real )
(declare-fun T6 () Real )
(declare-fun T7 () Real )
(declare-fun T8 () Real )
(declare-fun Z () Real )
(declare-fun k () Real )
(assert (let
(( $goal (>= Z k) ))
(let
((
$phi ( and 
(or ( <= ( + T1 13 ) T2 ) ( <= ( + T2 67 ) T1 ) )
(or ( <= ( + T1 36 )  ( + T2 67 ) ) ( <= ( + T2 107 )( + T1 13 ) ) )
(or ( <= ( + T1 108 )  ( + T2 107 ) ) ( <= ( + T2 132 )( + T1 36 ) ) )
(or ( <= ( + T1 202 )  ( + T2 132 ) ) ( <= ( + T2 198 )( + T1 108 ) ) )
(or ( <= ( + T1 245 )  ( + T2 198 ) ) ( <= ( + T2 280 )( + T1 202 ) ) )
(or ( <= ( + T1 314 )  ( + T2 280 ) ) ( <= ( + T2 295 )( + T1 245 ) ) )
(or ( <= ( + T1 13 ) T3 ) ( <= ( + T3 60 ) T1 ) )
(or ( <= ( + T1 36 )  ( + T3 60 ) ) ( <= ( + T3 61 )( + T1 13 ) ) )
(or ( <= ( + T1 108 )  ( + T3 61 ) ) ( <= ( + T3 149 )( + T1 36 ) ) )
(or ( <= ( + T1 202 )  ( + T3 149 ) ) ( <= ( + T3 202 )( + T1 108 ) ) )
(or ( <= ( + T1 245 )  ( + T3 202 ) ) ( <= ( + T3 210 )( + T1 202 ) ) )
(or ( <= ( + T1 314 )  ( + T3 210 ) ) ( <= ( + T3 244 )( + T1 245 ) ) )
(or ( <= ( + T1 13 ) T4 ) ( <= ( + T4 74 ) T1 ) )
(or ( <= ( + T1 36 )  ( + T4 74 ) ) ( <= ( + T4 171 )( + T1 13 ) ) )
(or ( <= ( + T1 108 )  ( + T4 171 ) ) ( <= ( + T4 191 )( + T1 36 ) ) )
(or ( <= ( + T1 202 )  ( + T4 191 ) ) ( <= ( + T4 265 )( + T1 108 ) ) )
(or ( <= ( + T1 245 )  ( + T4 265 ) ) ( <= ( + T4 286 )( + T1 202 ) ) )
(or ( <= ( + T1 314 )  ( + T4 286 ) ) ( <= ( + T4 330 )( + T1 245 ) ) )
(or ( <= ( + T1 13 ) T5 ) ( <= ( + T5 88 ) T1 ) )
(or ( <= ( + T1 36 )  ( + T5 88 ) ) ( <= ( + T5 152 )( + T1 13 ) ) )
(or ( <= ( + T1 108 )  ( + T5 152 ) ) ( <= ( + T5 226 )( + T1 36 ) ) )
(or ( <= ( + T1 202 )  ( + T5 226 ) ) ( <= ( + T5 259 )( + T1 108 ) ) )
(or ( <= ( + T1 245 )  ( + T5 259 ) ) ( <= ( + T5 267 )( + T1 202 ) ) )
(or ( <= ( + T1 314 )  ( + T5 267 ) ) ( <= ( + T5 297 )( + T1 245 ) ) )
(or ( <= ( + T1 13 ) T6 ) ( <= ( + T6 3 ) T1 ) )
(or ( <= ( + T1 36 )  ( + T6 3 ) ) ( <= ( + T6 23 )( + T1 13 ) ) )
(or ( <= ( + T1 108 )  ( + T6 23 ) ) ( <= ( + T6 28 )( + T1 36 ) ) )
(or ( <= ( + T1 202 )  ( + T6 28 ) ) ( <= ( + T6 54 )( + T1 108 ) ) )
(or ( <= ( + T1 245 )  ( + T6 54 ) ) ( <= ( + T6 119 )( + T1 202 ) ) )
(or ( <= ( + T1 314 )  ( + T6 119 ) ) ( <= ( + T6 166 )( + T1 245 ) ) )
(or ( <= ( + T1 13 ) T7 ) ( <= ( + T7 47 ) T1 ) )
(or ( <= ( + T1 36 )  ( + T7 47 ) ) ( <= ( + T7 131 )( + T1 13 ) ) )
(or ( <= ( + T1 108 )  ( + T7 131 ) ) ( <= ( + T7 217 )( + T1 36 ) ) )
(or ( <= ( + T1 202 )  ( + T7 217 ) ) ( <= ( + T7 288 )( + T1 108 ) ) )
(or ( <= ( + T1 245 )  ( + T7 288 ) ) ( <= ( + T7 337 )( + T1 202 ) ) )
(or ( <= ( + T1 314 )  ( + T7 337 ) ) ( <= ( + T7 405 )( + T1 245 ) ) )
(or ( <= ( + T1 13 ) T8 ) ( <= ( + T8 37 ) T1 ) )
(or ( <= ( + T1 36 )  ( + T8 37 ) ) ( <= ( + T8 97 )( + T1 13 ) ) )
(or ( <= ( + T1 108 )  ( + T8 97 ) ) ( <= ( + T8 117 )( + T1 36 ) ) )
(or ( <= ( + T1 202 )  ( + T8 117 ) ) ( <= ( + T8 141 )( + T1 108 ) ) )
(or ( <= ( + T1 245 )  ( + T8 141 ) ) ( <= ( + T8 153 )( + T1 202 ) ) )
(or ( <= ( + T1 314 )  ( + T8 153 ) ) ( <= ( + T8 180 )( + T1 245 ) ) )
(or ( <= ( + T2 67 ) T3 ) ( <= ( + T3 60 ) T2 ) )
(or ( <= ( + T2 107 )  ( + T3 60 ) ) ( <= ( + T3 61 )( + T2 67 ) ) )
(or ( <= ( + T2 132 )  ( + T3 61 ) ) ( <= ( + T3 149 )( + T2 107 ) ) )
(or ( <= ( + T2 198 )  ( + T3 149 ) ) ( <= ( + T3 202 )( + T2 132 ) ) )
(or ( <= ( + T2 280 )  ( + T3 202 ) ) ( <= ( + T3 210 )( + T2 198 ) ) )
(or ( <= ( + T2 295 )  ( + T3 210 ) ) ( <= ( + T3 244 )( + T2 280 ) ) )
(or ( <= ( + T2 67 ) T4 ) ( <= ( + T4 74 ) T2 ) )
(or ( <= ( + T2 107 )  ( + T4 74 ) ) ( <= ( + T4 171 )( + T2 67 ) ) )
(or ( <= ( + T2 132 )  ( + T4 171 ) ) ( <= ( + T4 191 )( + T2 107 ) ) )
(or ( <= ( + T2 198 )  ( + T4 191 ) ) ( <= ( + T4 265 )( + T2 132 ) ) )
(or ( <= ( + T2 280 )  ( + T4 265 ) ) ( <= ( + T4 286 )( + T2 198 ) ) )
(or ( <= ( + T2 295 )  ( + T4 286 ) ) ( <= ( + T4 330 )( + T2 280 ) ) )
(or ( <= ( + T2 67 ) T5 ) ( <= ( + T5 88 ) T2 ) )
(or ( <= ( + T2 107 )  ( + T5 88 ) ) ( <= ( + T5 152 )( + T2 67 ) ) )
(or ( <= ( + T2 132 )  ( + T5 152 ) ) ( <= ( + T5 226 )( + T2 107 ) ) )
(or ( <= ( + T2 198 )  ( + T5 226 ) ) ( <= ( + T5 259 )( + T2 132 ) ) )
(or ( <= ( + T2 280 )  ( + T5 259 ) ) ( <= ( + T5 267 )( + T2 198 ) ) )
(or ( <= ( + T2 295 )  ( + T5 267 ) ) ( <= ( + T5 297 )( + T2 280 ) ) )
(or ( <= ( + T2 67 ) T6 ) ( <= ( + T6 3 ) T2 ) )
(or ( <= ( + T2 107 )  ( + T6 3 ) ) ( <= ( + T6 23 )( + T2 67 ) ) )
(or ( <= ( + T2 132 )  ( + T6 23 ) ) ( <= ( + T6 28 )( + T2 107 ) ) )
(or ( <= ( + T2 198 )  ( + T6 28 ) ) ( <= ( + T6 54 )( + T2 132 ) ) )
(or ( <= ( + T2 280 )  ( + T6 54 ) ) ( <= ( + T6 119 )( + T2 198 ) ) )
(or ( <= ( + T2 295 )  ( + T6 119 ) ) ( <= ( + T6 166 )( + T2 280 ) ) )
(or ( <= ( + T2 67 ) T7 ) ( <= ( + T7 47 ) T2 ) )
(or ( <= ( + T2 107 )  ( + T7 47 ) ) ( <= ( + T7 131 )( + T2 67 ) ) )
(or ( <= ( + T2 132 )  ( + T7 131 ) ) ( <= ( + T7 217 )( + T2 107 ) ) )
(or ( <= ( + T2 198 )  ( + T7 217 ) ) ( <= ( + T7 288 )( + T2 132 ) ) )
(or ( <= ( + T2 280 )  ( + T7 288 ) ) ( <= ( + T7 337 )( + T2 198 ) ) )
(or ( <= ( + T2 295 )  ( + T7 337 ) ) ( <= ( + T7 405 )( + T2 280 ) ) )
(or ( <= ( + T2 67 ) T8 ) ( <= ( + T8 37 ) T2 ) )
(or ( <= ( + T2 107 )  ( + T8 37 ) ) ( <= ( + T8 97 )( + T2 67 ) ) )
(or ( <= ( + T2 132 )  ( + T8 97 ) ) ( <= ( + T8 117 )( + T2 107 ) ) )
(or ( <= ( + T2 198 )  ( + T8 117 ) ) ( <= ( + T8 141 )( + T2 132 ) ) )
(or ( <= ( + T2 280 )  ( + T8 141 ) ) ( <= ( + T8 153 )( + T2 198 ) ) )
(or ( <= ( + T2 295 )  ( + T8 153 ) ) ( <= ( + T8 180 )( + T2 280 ) ) )
(or ( <= ( + T3 60 ) T4 ) ( <= ( + T4 74 ) T3 ) )
(or ( <= ( + T3 61 )  ( + T4 74 ) ) ( <= ( + T4 171 )( + T3 60 ) ) )
(or ( <= ( + T3 149 )  ( + T4 171 ) ) ( <= ( + T4 191 )( + T3 61 ) ) )
(or ( <= ( + T3 202 )  ( + T4 191 ) ) ( <= ( + T4 265 )( + T3 149 ) ) )
(or ( <= ( + T3 210 )  ( + T4 265 ) ) ( <= ( + T4 286 )( + T3 202 ) ) )
(or ( <= ( + T3 244 )  ( + T4 286 ) ) ( <= ( + T4 330 )( + T3 210 ) ) )
(or ( <= ( + T3 60 ) T5 ) ( <= ( + T5 88 ) T3 ) )
(or ( <= ( + T3 61 )  ( + T5 88 ) ) ( <= ( + T5 152 )( + T3 60 ) ) )
(or ( <= ( + T3 149 )  ( + T5 152 ) ) ( <= ( + T5 226 )( + T3 61 ) ) )
(or ( <= ( + T3 202 )  ( + T5 226 ) ) ( <= ( + T5 259 )( + T3 149 ) ) )
(or ( <= ( + T3 210 )  ( + T5 259 ) ) ( <= ( + T5 267 )( + T3 202 ) ) )
(or ( <= ( + T3 244 )  ( + T5 267 ) ) ( <= ( + T5 297 )( + T3 210 ) ) )
(or ( <= ( + T3 60 ) T6 ) ( <= ( + T6 3 ) T3 ) )
(or ( <= ( + T3 61 )  ( + T6 3 ) ) ( <= ( + T6 23 )( + T3 60 ) ) )
(or ( <= ( + T3 149 )  ( + T6 23 ) ) ( <= ( + T6 28 )( + T3 61 ) ) )
(or ( <= ( + T3 202 )  ( + T6 28 ) ) ( <= ( + T6 54 )( + T3 149 ) ) )
(or ( <= ( + T3 210 )  ( + T6 54 ) ) ( <= ( + T6 119 )( + T3 202 ) ) )
(or ( <= ( + T3 244 )  ( + T6 119 ) ) ( <= ( + T6 166 )( + T3 210 ) ) )
(or ( <= ( + T3 60 ) T7 ) ( <= ( + T7 47 ) T3 ) )
(or ( <= ( + T3 61 )  ( + T7 47 ) ) ( <= ( + T7 131 )( + T3 60 ) ) )
(or ( <= ( + T3 149 )  ( + T7 131 ) ) ( <= ( + T7 217 )( + T3 61 ) ) )
(or ( <= ( + T3 202 )  ( + T7 217 ) ) ( <= ( + T7 288 )( + T3 149 ) ) )
(or ( <= ( + T3 210 )  ( + T7 288 ) ) ( <= ( + T7 337 )( + T3 202 ) ) )
(or ( <= ( + T3 244 )  ( + T7 337 ) ) ( <= ( + T7 405 )( + T3 210 ) ) )
(or ( <= ( + T3 60 ) T8 ) ( <= ( + T8 37 ) T3 ) )
(or ( <= ( + T3 61 )  ( + T8 37 ) ) ( <= ( + T8 97 )( + T3 60 ) ) )
(or ( <= ( + T3 149 )  ( + T8 97 ) ) ( <= ( + T8 117 )( + T3 61 ) ) )
(or ( <= ( + T3 202 )  ( + T8 117 ) ) ( <= ( + T8 141 )( + T3 149 ) ) )
(or ( <= ( + T3 210 )  ( + T8 141 ) ) ( <= ( + T8 153 )( + T3 202 ) ) )
(or ( <= ( + T3 244 )  ( + T8 153 ) ) ( <= ( + T8 180 )( + T3 210 ) ) )
(or ( <= ( + T4 74 ) T5 ) ( <= ( + T5 88 ) T4 ) )
(or ( <= ( + T4 171 )  ( + T5 88 ) ) ( <= ( + T5 152 )( + T4 74 ) ) )
(or ( <= ( + T4 191 )  ( + T5 152 ) ) ( <= ( + T5 226 )( + T4 171 ) ) )
(or ( <= ( + T4 265 )  ( + T5 226 ) ) ( <= ( + T5 259 )( + T4 191 ) ) )
(or ( <= ( + T4 286 )  ( + T5 259 ) ) ( <= ( + T5 267 )( + T4 265 ) ) )
(or ( <= ( + T4 330 )  ( + T5 267 ) ) ( <= ( + T5 297 )( + T4 286 ) ) )
(or ( <= ( + T4 74 ) T6 ) ( <= ( + T6 3 ) T4 ) )
(or ( <= ( + T4 171 )  ( + T6 3 ) ) ( <= ( + T6 23 )( + T4 74 ) ) )
(or ( <= ( + T4 191 )  ( + T6 23 ) ) ( <= ( + T6 28 )( + T4 171 ) ) )
(or ( <= ( + T4 265 )  ( + T6 28 ) ) ( <= ( + T6 54 )( + T4 191 ) ) )
(or ( <= ( + T4 286 )  ( + T6 54 ) ) ( <= ( + T6 119 )( + T4 265 ) ) )
(or ( <= ( + T4 330 )  ( + T6 119 ) ) ( <= ( + T6 166 )( + T4 286 ) ) )
(or ( <= ( + T4 74 ) T7 ) ( <= ( + T7 47 ) T4 ) )
(or ( <= ( + T4 171 )  ( + T7 47 ) ) ( <= ( + T7 131 )( + T4 74 ) ) )
(or ( <= ( + T4 191 )  ( + T7 131 ) ) ( <= ( + T7 217 )( + T4 171 ) ) )
(or ( <= ( + T4 265 )  ( + T7 217 ) ) ( <= ( + T7 288 )( + T4 191 ) ) )
(or ( <= ( + T4 286 )  ( + T7 288 ) ) ( <= ( + T7 337 )( + T4 265 ) ) )
(or ( <= ( + T4 330 )  ( + T7 337 ) ) ( <= ( + T7 405 )( + T4 286 ) ) )
(or ( <= ( + T4 74 ) T8 ) ( <= ( + T8 37 ) T4 ) )
(or ( <= ( + T4 171 )  ( + T8 37 ) ) ( <= ( + T8 97 )( + T4 74 ) ) )
(or ( <= ( + T4 191 )  ( + T8 97 ) ) ( <= ( + T8 117 )( + T4 171 ) ) )
(or ( <= ( + T4 265 )  ( + T8 117 ) ) ( <= ( + T8 141 )( + T4 191 ) ) )
(or ( <= ( + T4 286 )  ( + T8 141 ) ) ( <= ( + T8 153 )( + T4 265 ) ) )
(or ( <= ( + T4 330 )  ( + T8 153 ) ) ( <= ( + T8 180 )( + T4 286 ) ) )
(or ( <= ( + T5 88 ) T6 ) ( <= ( + T6 3 ) T5 ) )
(or ( <= ( + T5 152 )  ( + T6 3 ) ) ( <= ( + T6 23 )( + T5 88 ) ) )
(or ( <= ( + T5 226 )  ( + T6 23 ) ) ( <= ( + T6 28 )( + T5 152 ) ) )
(or ( <= ( + T5 259 )  ( + T6 28 ) ) ( <= ( + T6 54 )( + T5 226 ) ) )
(or ( <= ( + T5 267 )  ( + T6 54 ) ) ( <= ( + T6 119 )( + T5 259 ) ) )
(or ( <= ( + T5 297 )  ( + T6 119 ) ) ( <= ( + T6 166 )( + T5 267 ) ) )
(or ( <= ( + T5 88 ) T7 ) ( <= ( + T7 47 ) T5 ) )
(or ( <= ( + T5 152 )  ( + T7 47 ) ) ( <= ( + T7 131 )( + T5 88 ) ) )
(or ( <= ( + T5 226 )  ( + T7 131 ) ) ( <= ( + T7 217 )( + T5 152 ) ) )
(or ( <= ( + T5 259 )  ( + T7 217 ) ) ( <= ( + T7 288 )( + T5 226 ) ) )
(or ( <= ( + T5 267 )  ( + T7 288 ) ) ( <= ( + T7 337 )( + T5 259 ) ) )
(or ( <= ( + T5 297 )  ( + T7 337 ) ) ( <= ( + T7 405 )( + T5 267 ) ) )
(or ( <= ( + T5 88 ) T8 ) ( <= ( + T8 37 ) T5 ) )
(or ( <= ( + T5 152 )  ( + T8 37 ) ) ( <= ( + T8 97 )( + T5 88 ) ) )
(or ( <= ( + T5 226 )  ( + T8 97 ) ) ( <= ( + T8 117 )( + T5 152 ) ) )
(or ( <= ( + T5 259 )  ( + T8 117 ) ) ( <= ( + T8 141 )( + T5 226 ) ) )
(or ( <= ( + T5 267 )  ( + T8 141 ) ) ( <= ( + T8 153 )( + T5 259 ) ) )
(or ( <= ( + T5 297 )  ( + T8 153 ) ) ( <= ( + T8 180 )( + T5 267 ) ) )
(or ( <= ( + T6 3 ) T7 ) ( <= ( + T7 47 ) T6 ) )
(or ( <= ( + T6 23 )  ( + T7 47 ) ) ( <= ( + T7 131 )( + T6 3 ) ) )
(or ( <= ( + T6 28 )  ( + T7 131 ) ) ( <= ( + T7 217 )( + T6 23 ) ) )
(or ( <= ( + T6 54 )  ( + T7 217 ) ) ( <= ( + T7 288 )( + T6 28 ) ) )
(or ( <= ( + T6 119 )  ( + T7 288 ) ) ( <= ( + T7 337 )( + T6 54 ) ) )
(or ( <= ( + T6 166 )  ( + T7 337 ) ) ( <= ( + T7 405 )( + T6 119 ) ) )
(or ( <= ( + T6 3 ) T8 ) ( <= ( + T8 37 ) T6 ) )
(or ( <= ( + T6 23 )  ( + T8 37 ) ) ( <= ( + T8 97 )( + T6 3 ) ) )
(or ( <= ( + T6 28 )  ( + T8 97 ) ) ( <= ( + T8 117 )( + T6 23 ) ) )
(or ( <= ( + T6 54 )  ( + T8 117 ) ) ( <= ( + T8 141 )( + T6 28 ) ) )
(or ( <= ( + T6 119 )  ( + T8 141 ) ) ( <= ( + T8 153 )( + T6 54 ) ) )
(or ( <= ( + T6 166 )  ( + T8 153 ) ) ( <= ( + T8 180 )( + T6 119 ) ) )
(or ( <= ( + T7 47 ) T8 ) ( <= ( + T8 37 ) T7 ) )
(or ( <= ( + T7 131 )  ( + T8 37 ) ) ( <= ( + T8 97 )( + T7 47 ) ) )
(or ( <= ( + T7 217 )  ( + T8 97 ) ) ( <= ( + T8 117 )( + T7 131 ) ) )
(or ( <= ( + T7 288 )  ( + T8 117 ) ) ( <= ( + T8 141 )( + T7 217 ) ) )
(or ( <= ( + T7 337 )  ( + T8 141 ) ) ( <= ( + T8 153 )( + T7 288 ) ) )
(or ( <= ( + T7 405 )  ( + T8 153 ) ) ( <= ( + T8 180 )( + T7 337 ) ) )
( <= ( + T1 314 ) Z)
( <= ( + T2 295 ) Z)
( <= ( + T3 244 ) Z)
( <= ( + T4 330 ) Z)
( <= ( + T5 297 ) Z)
( <= ( + T6 166 ) Z)
( <= ( + T7 405 ) Z)
( <= ( + T8 180 ) Z)
( >= T1 0 )
( >= T2 0 )
( >= T3 0 )
( >= T4 0 )
( >= T5 0 )
( >= T6 0 )
( >= T7 0 )
( >= T8 0 )
) )
)(=> $phi $goal))))